
n_res = 8;
rcap = [72, 75, 82, 78, 1329, 1391, 1345, 1297];
rtype = [1, 1, 1, 1, 2, 2, 2, 2];
n_tasks = 100;
modes =  [{1, 2, 3}, {4, 5, 6}, {7, 8, 9}, {10, 11, 12}, {13, 14, 15}, {16, 17, 18}, {19, 20, 21}, {22, 23, 24}, {25, 26, 27}, {28, 29, 30}, {31, 32, 33}, {34, 35, 36}, {37, 38, 39}, {40, 41, 42}, {43, 44, 45}, {46, 47, 48}, {49, 50, 51}, {52, 53, 54}, {55, 56, 57}, {58, 59, 60}, {61, 62, 63}, {64, 65, 66}, {67, 68, 69}, {70, 71, 72}, {73, 74, 75}, {76, 77, 78}, {79, 80, 81}, {82, 83, 84}, {85, 86, 87}, {88, 89, 90}, {91, 92, 93}, {94, 95, 96}, {97, 98, 99}, {100, 101, 102}, {103, 104, 105}, {106, 107, 108}, {109, 110, 111}, {112, 113, 114}, {115, 116, 117}, {118, 119, 120}, {121, 122, 123}, {124, 125, 126}, {127, 128, 129}, {130, 131, 132}, {133, 134, 135}, {136, 137, 138}, {139, 140, 141}, {142, 143, 144}, {145, 146, 147}, {148, 149, 150}, {151, 152, 153}, {154, 155, 156}, {157, 158, 159}, {160, 161, 162}, {163, 164, 165}, {166, 167, 168}, {169, 170, 171}, {172, 173, 174}, {175, 176, 177}, {178, 179, 180}, {181, 182, 183}, {184, 185, 186}, {187, 188, 189}, {190, 191, 192}, {193, 194, 195}, {196, 197, 198}, {199, 200, 201}, {202, 203, 204}, {205, 206, 207}, {208, 209, 210}, {211, 212, 213}, {214, 215, 216}, {217, 218, 219}, {220, 221, 222}, {223, 224, 225}, {226, 227, 228}, {229, 230, 231}, {232, 233, 234}, {235, 236, 237}, {238, 239, 240}, {241, 242, 243}, {244, 245, 246}, {247, 248, 249}, {250, 251, 252}, {253, 254, 255}, {256, 257, 258}, {259, 260, 261}, {262, 263, 264}, {265, 266, 267}, {268, 269, 270}, {271, 272, 273}, {274, 275, 276}, {277, 278, 279}, {280, 281, 282}, {283, 284, 285}, {286, 287, 288}, {289, 290, 291}, {292, 293, 294}, {295, 296, 297}, {298, 299, 300}];
succ =  [{38, 22, 20, 15, 14, 12, 9}, {38, 30, 27, 24, 23, 20, 18, 17, 14}, {30, 25, 22, 19, 7}, {30, 25, 19, 18, 13, 12}, {38, 31, 30, 27, 25, 24, 23, 18, 17}, {38, 35, 33, 30, 28, 26, 22, 14}, {38, 29, 28, 27, 24, 15}, {35, 33, 31, 30, 29, 28, 27, 24, 22}, {35, 30, 28, 27, 25, 24, 17}, {33, 32, 29, 28, 26, 25, 24, 23}, {38, 31, 27, 23, 17}, {33, 32, 31, 29, 28, 24, 23}, {37, 36, 32, 29, 27, 23}, {47, 34, 32, 31, 29, 25}, {34, 33, 32, 31, 23}, {38, 31, 24, 23}, {47, 37, 34, 33, 32, 29}, {46, 37, 36, 35, 28}, {46, 37, 36, 35, 27}, {47, 36, 32, 31, 29}, {47, 39, 37, 33, 29}, {47, 46, 37, 36, 32}, {51, 48, 47, 46, 41, 40, 39, 35}, {48, 39, 37, 36}, {48, 39, 37, 36}, {51, 48, 46, 45, 42, 41, 40, 39}, {51, 48, 47, 41, 40, 34}, {51, 48, 47, 39, 34}, {54, 51, 50, 48, 46, 45, 43, 40}, {54, 51, 48, 46, 45, 43, 41, 40}, {54, 52, 51, 48, 44, 43, 42, 41}, {58, 51, 48, 42, 39}, {41, 36}, {58, 54, 45, 44, 43, 42}, {58, 54, 45, 44, 43, 42}, {58, 56, 54, 52, 51, 44, 42}, {54, 45, 41, 40}, {58, 52, 50, 49, 48, 43}, {54, 53, 52, 49, 43}, {59, 58, 55, 49, 44}, {59, 58, 55, 53, 49}, {55, 53, 50, 49}, {73, 61, 60, 59, 57, 56, 55}, {65, 61, 60, 57, 53}, {65, 63, 60, 52}, {65, 61, 57, 53}, {73, 61, 57, 55}, {64, 61, 59, 53}, {73, 63, 61, 60, 57}, {73, 63, 62, 61, 57}, {57, 55}, {73, 62, 61, 57}, {80, 74, 73, 71, 70, 67, 63, 62}, {71, 68, 66, 64, 63, 61}, {74, 71, 70, 65, 63, 62}, {80, 74, 70, 67, 63, 62}, {83, 78, 76, 74, 71, 70, 69, 64}, {80, 78, 70, 69, 68, 67, 66, 63}, {80, 78, 74, 70, 68, 66, 63}, {78, 76, 75, 72, 69, 68, 66}, {90, 84, 83, 82, 80, 78, 77, 75, 74, 69}, {78, 75, 72, 68, 66}, {91, 90, 89, 83, 82, 81, 79, 76, 72}, {91, 84, 82, 81, 80, 67}, {89, 85, 78, 75, 72}, {100, 97, 90, 86, 85, 84, 79, 77}, {90, 89, 86, 85, 72}, {94, 93, 91, 90, 88, 83, 82}, {99, 91, 89, 85, 81, 79}, {89, 77, 75}, {100, 99, 96, 95, 93, 87, 81}, {100, 98, 97, 94, 88, 77}, {99, 97, 94, 87, 85, 79}, {99, 97, 96, 89, 88, 86, 85}, {100, 95, 93, 87, 81}, {98, 96, 94, 93, 88, 87, 85}, {99, 96, 95, 93, 87}, {97, 96, 94, 93, 92}, {98, 96, 93, 88}, {94, 93, 88, 87}, {98, 97, 86}, {96, 87, 85}, {100, 97, 95, 92}, {95, 94, 89}, {95, 92}, {94, 92}, {92}, {92}, {93}, {98}, {92}, {}, {}, {}, {}, {}, {}, {}, {}, {}];
n_opt = 300;
dur = [7, 21, 22, 15, 16, 28, 8, 20, 26, 6, 21, 25, 10, 17, 24, 1, 19, 22, 14, 22, 23, 13, 17, 19, 7, 12, 16, 13, 17, 18, 11, 22, 30, 10, 16, 17, 7, 11, 26, 11, 23, 29, 4, 9, 16, 10, 22, 25, 7, 8, 10, 3, 17, 25, 12, 17, 20, 9, 12, 21, 8, 15, 19, 2, 10, 23, 1, 7, 13, 14, 23, 24, 28, 29, 30, 12, 24, 25, 12, 19, 30, 7, 20, 29, 1, 13, 20, 2, 3, 4, 13, 22, 28, 15, 16, 20, 6, 9, 14, 3, 16, 24, 18, 20, 23, 3, 8, 13, 6, 9, 10, 11, 12, 21, 2, 8, 28, 15, 19, 30, 8, 9, 22, 13, 21, 30, 11, 12, 23, 2, 5, 15, 10, 26, 28, 8, 18, 26, 3, 16, 17, 6, 11, 25, 1, 25, 30, 2, 8, 25, 9, 15, 21, 12, 20, 30, 8, 11, 22, 7, 10, 17, 10, 12, 30, 8, 15, 22, 4, 25, 28, 4, 14, 15, 14, 25, 26, 10, 22, 25, 1, 14, 17, 2, 12, 17, 3, 19, 22, 6, 16, 26, 8, 28, 29, 2, 9, 18, 7, 10, 26, 17, 21, 23, 16, 25, 28, 10, 11, 29, 1, 10, 22, 6, 7, 17, 2, 21, 26, 4, 6, 27, 1, 18, 19, 8, 9, 26, 4, 10, 18, 8, 24, 27, 5, 6, 10, 7, 19, 24, 1, 8, 30, 11, 15, 20, 4, 19, 23, 17, 20, 25, 1, 13, 16, 20, 21, 28, 19, 20, 22, 8, 16, 25, 2, 8, 22, 3, 11, 18, 2, 4, 9, 2, 4, 11, 2, 16, 22, 2, 5, 16, 2, 16, 19, 22, 25, 27, 7, 10, 17, 7, 19, 22, 22, 23, 27, 17, 25, 28];
rreq = [|25, 18, 12, 3, 3, 2, 12, 11, 8, 20, 19, 14, 17, 12, 10, 25, 17, 7, 21, 16, 10, 22, 20, 20, 6, 5, 4, 19, 19, 19, 27, 17, 16, 25, 21, 11, 14, 12, 10, 6, 5, 5, 9, 7, 5, 18, 17, 9, 6, 5, 4, 29, 23, 22, 21, 21, 17, 9, 8, 7, 11, 11, 11, 13, 11, 10, 22, 20, 13, 10, 9, 9, 18, 16, 14, 30, 30, 30, 19, 18, 18, 16, 16, 16, 16, 15, 10, 28, 23, 17, 27, 20, 9, 18, 11, 7, 4, 3, 3, 16, 13, 6, 8, 7, 7, 19, 18, 17, 21, 19, 8, 22, 11, 8, 25, 19, 13, 15, 13, 11, 8, 6, 4, 30, 27, 24, 6, 4, 3, 20, 15, 11, 20, 8, 3, 13, 11, 8, 11, 8, 8, 9, 9, 4, 19, 16, 6, 6, 4, 4, 9, 7, 7, 25, 18, 15, 21, 15, 9, 19, 14, 12, 20, 13, 12, 19, 18, 17, 14, 14, 14, 14, 13, 11, 30, 22, 17, 19, 12, 5, 23, 20, 12, 22, 20, 18, 29, 19, 18, 22, 20, 19, 6, 5, 2, 28, 27, 25, 20, 17, 15, 10, 9, 6, 4, 4, 4, 10, 10, 10, 14, 12, 11, 17, 11, 9, 5, 4, 4, 19, 17, 10, 13, 10, 7, 18, 17, 17, 22, 21, 19, 28, 27, 26, 27, 24, 17, 27, 26, 26, 27, 21, 15, 27, 21, 15, 7, 6, 4, 19, 17, 14, 23, 21, 18, 24, 18, 14, 24, 23, 23, 15, 13, 12, 25, 24, 23, 16, 15, 12, 15, 13, 10, 23, 16, 2, 14, 14, 14, 25, 24, 13, 21, 19, 18, 11, 7, 5, 25, 21, 21, 21, 8, 7, 13, 13, 13, 24, 19, 17
 |17, 15, 13, 22, 16, 4, 23, 22, 19, 9, 9, 3, 17, 13, 8, 22, 21, 20, 23, 9, 4, 14, 11, 8, 16, 14, 14, 14, 11, 8, 13, 11, 9, 25, 22, 17, 22, 19, 15, 10, 7, 5, 14, 13, 13, 23, 16, 8, 15, 11, 8, 8, 7, 4, 24, 22, 19, 13, 11, 11, 12, 11, 7, 14, 13, 6, 24, 21, 16, 30, 23, 23, 4, 4, 3, 5, 5, 5, 14, 12, 10, 20, 19, 19, 11, 9, 9, 22, 20, 20, 16, 6, 6, 24, 21, 16, 11, 10, 10, 18, 14, 10, 21, 20, 18, 17, 13, 3, 5, 3, 3, 6, 4, 3, 26, 9, 9, 11, 7, 7, 4, 3, 3, 23, 18, 16, 26, 25, 20, 23, 15, 14, 15, 9, 7, 18, 16, 9, 11, 10, 9, 14, 14, 12, 26, 21, 11, 11, 10, 9, 25, 25, 25, 18, 16, 13, 21, 16, 11, 27, 21, 19, 15, 8, 6, 25, 25, 25, 24, 19, 13, 12, 10, 7, 11, 10, 9, 18, 10, 8, 23, 23, 21, 29, 28, 27, 24, 22, 16, 3, 3, 2, 12, 9, 8, 23, 22, 21, 17, 14, 9, 20, 20, 18, 20, 20, 19, 6, 5, 5, 7, 6, 5, 27, 26, 23, 26, 23, 22, 24, 21, 20, 24, 14, 4, 29, 22, 14, 24, 22, 13, 20, 14, 9, 28, 26, 24, 27, 18, 15, 25, 25, 22, 14, 11, 9, 26, 14, 11, 18, 14, 12, 9, 8, 6, 12, 8, 6, 23, 19, 10, 16, 14, 14, 15, 10, 2, 27, 16, 11, 25, 23, 20, 30, 29, 28, 28, 28, 27, 10, 6, 5, 23, 15, 11, 14, 12, 12, 14, 12, 6, 6, 6, 6, 10, 9, 9, 19, 17, 8
 |19, 16, 15, 22, 22, 22, 20, 18, 18, 23, 21, 19, 20, 20, 12, 6, 3, 3, 25, 21, 18, 27, 22, 20, 24, 13, 8, 28, 22, 18, 20, 17, 13, 15, 9, 6, 22, 16, 13, 22, 12, 7, 18, 10, 6, 18, 12, 10, 14, 13, 12, 17, 14, 12, 21, 13, 10, 27, 13, 8, 18, 12, 10, 18, 15, 8, 21, 18, 17, 14, 13, 11, 28, 23, 19, 8, 8, 8, 12, 5, 3, 24, 23, 19, 13, 12, 8, 18, 16, 16, 29, 28, 27, 9, 9, 9, 18, 16, 14, 21, 15, 14, 25, 20, 17, 22, 13, 5, 23, 16, 12, 12, 11, 10, 12, 10, 5, 17, 16, 15, 14, 10, 8, 6, 5, 2, 5, 4, 3, 28, 25, 25, 12, 12, 12, 16, 16, 16, 7, 4, 2, 21, 16, 12, 15, 12, 10, 25, 24, 22, 20, 20, 18, 14, 13, 12, 17, 15, 13, 16, 14, 14, 21, 13, 10, 10, 9, 7, 13, 10, 5, 19, 18, 18, 26, 25, 20, 24, 16, 15, 9, 5, 3, 27, 19, 15, 14, 12, 10, 6, 4, 4, 26, 17, 9, 28, 22, 17, 6, 4, 3, 18, 13, 12, 21, 20, 20, 15, 10, 3, 25, 19, 15, 20, 14, 9, 22, 13, 11, 12, 7, 4, 27, 25, 25, 19, 16, 15, 22, 21, 19, 7, 6, 5, 18, 16, 16, 20, 17, 10, 28, 26, 25, 23, 15, 14, 25, 25, 25, 8, 5, 4, 15, 14, 9, 18, 17, 17, 9, 7, 6, 3, 1, 1, 22, 22, 22, 18, 10, 7, 15, 14, 13, 5, 5, 5, 21, 19, 17, 24, 13, 11, 27, 25, 24, 18, 18, 17, 14, 11, 4, 11, 8, 7, 20, 13, 7, 24, 21, 19
 |16, 14, 8, 19, 17, 17, 29, 23, 18, 15, 8, 6, 25, 22, 17, 8, 6, 4, 13, 7, 4, 20, 15, 8, 14, 11, 8, 15, 11, 9, 11, 9, 7, 29, 27, 27, 24, 21, 19, 26, 19, 11, 3, 1, 1, 30, 27, 26, 28, 27, 26, 22, 21, 21, 12, 10, 6, 18, 17, 14, 9, 8, 1, 8, 6, 6, 23, 19, 15, 24, 24, 24, 18, 14, 8, 17, 15, 6, 5, 3, 2, 20, 10, 9, 9, 7, 2, 24, 13, 7, 27, 21, 16, 24, 17, 14, 5, 5, 4, 25, 23, 22, 20, 17, 15, 17, 14, 14, 18, 16, 15, 21, 10, 6, 9, 7, 7, 18, 15, 12, 15, 10, 5, 22, 18, 13, 25, 23, 11, 7, 6, 2, 17, 13, 7, 19, 16, 15, 12, 12, 6, 12, 12, 12, 16, 13, 8, 16, 11, 10, 6, 5, 1, 28, 28, 26, 18, 13, 7, 16, 15, 10, 11, 4, 2, 24, 19, 16, 2, 2, 2, 11, 8, 6, 21, 16, 16, 26, 22, 17, 15, 14, 12, 25, 20, 14, 24, 24, 21, 21, 20, 20, 9, 5, 3, 25, 20, 13, 14, 9, 3, 25, 18, 10, 17, 13, 6, 14, 9, 4, 19, 19, 19, 10, 5, 2, 26, 24, 24, 30, 30, 30, 26, 24, 22, 12, 10, 9, 12, 11, 8, 8, 8, 8, 10, 8, 6, 16, 16, 15, 11, 9, 3, 15, 15, 14, 23, 15, 12, 26, 24, 23, 29, 24, 17, 29, 23, 18, 25, 25, 25, 12, 7, 1, 8, 6, 3, 25, 17, 16, 9, 7, 4, 22, 15, 13, 8, 6, 6, 27, 26, 26, 10, 5, 4, 25, 20, 19, 4, 3, 3, 20, 15, 14, 27, 20, 16, 18, 12, 6
 |26, 17, 17, 27, 16, 9, 11, 9, 7, 20, 12, 6, 11, 9, 9, 24, 18, 9, 22, 20, 11, 9, 9, 3, 29, 21, 17, 16, 15, 14, 20, 19, 18, 9, 9, 9, 29, 21, 10, 25, 25, 24, 28, 26, 24, 8, 8, 7, 16, 11, 4, 20, 11, 4, 22, 19, 8, 25, 16, 7, 20, 17, 11, 9, 8, 4, 19, 14, 7, 19, 18, 16, 10, 7, 5, 29, 25, 18, 8, 7, 5, 18, 16, 9, 24, 18, 15, 27, 25, 25, 20, 12, 3, 20, 16, 4, 16, 12, 3, 26, 25, 24, 14, 12, 10, 13, 10, 8, 14, 11, 11, 19, 15, 6, 13, 7, 7, 16, 16, 14, 27, 19, 13, 24, 15, 13, 13, 8, 1, 11, 8, 6, 28, 27, 27, 18, 9, 5, 22, 18, 3, 7, 5, 4, 14, 12, 10, 29, 29, 29, 23, 11, 1, 25, 19, 15, 20, 12, 3, 20, 17, 16, 18, 14, 4, 20, 20, 14, 30, 27, 23, 25, 23, 20, 18, 14, 13, 25, 23, 23, 21, 16, 16, 23, 21, 17, 27, 26, 24, 9, 6, 4, 9, 7, 7, 15, 12, 7, 25, 22, 20, 29, 23, 21, 27, 20, 19, 17, 16, 9, 24, 19, 7, 24, 22, 18, 16, 15, 15, 25, 17, 15, 3, 2, 1, 21, 18, 18, 13, 9, 3, 12, 10, 10, 12, 8, 8, 21, 20, 14, 15, 15, 4, 10, 9, 8, 14, 12, 11, 28, 28, 28, 9, 8, 7, 23, 23, 20, 25, 19, 19, 13, 11, 11, 17, 12, 4, 9, 8, 6, 23, 16, 11, 18, 16, 9, 24, 23, 15, 8, 5, 4, 23, 18, 6, 24, 22, 20, 4, 2, 2, 11, 11, 10, 26, 17, 13, 25, 19, 17
 |9, 6, 4, 15, 13, 12, 28, 28, 28, 9, 9, 6, 28, 17, 13, 17, 17, 17, 24, 19, 13, 20, 17, 8, 13, 8, 8, 14, 11, 9, 22, 18, 18, 27, 23, 19, 29, 29, 29, 24, 24, 24, 25, 14, 12, 18, 12, 5, 13, 9, 8, 18, 16, 15, 24, 16, 13, 21, 21, 20, 16, 15, 15, 12, 5, 1, 26, 24, 18, 10, 7, 7, 30, 23, 23, 6, 5, 2, 26, 20, 17, 5, 5, 4, 19, 18, 16, 15, 12, 10, 17, 17, 17, 22, 18, 17, 21, 13, 9, 19, 13, 6, 11, 7, 6, 24, 21, 19, 16, 10, 7, 24, 18, 16, 13, 11, 5, 20, 14, 2, 15, 15, 15, 11, 5, 3, 7, 7, 7, 23, 21, 17, 19, 18, 18, 17, 12, 2, 8, 5, 2, 24, 12, 7, 18, 15, 6, 22, 21, 20, 16, 11, 4, 29, 29, 28, 21, 19, 12, 19, 15, 5, 25, 21, 18, 18, 11, 9, 15, 12, 12, 23, 22, 22, 27, 24, 21, 18, 17, 11, 10, 7, 5, 10, 10, 6, 16, 12, 8, 19, 17, 14, 15, 14, 12, 27, 16, 12, 27, 25, 19, 10, 8, 7, 20, 17, 16, 23, 22, 21, 23, 22, 19, 14, 10, 1, 17, 14, 2, 18, 16, 13, 23, 15, 5, 14, 13, 12, 19, 13, 12, 12, 10, 7, 18, 12, 8, 13, 10, 4, 17, 17, 16, 13, 12, 12, 12, 10, 7, 30, 30, 30, 24, 22, 22, 7, 7, 6, 18, 18, 16, 15, 9, 3, 25, 13, 8, 26, 21, 14, 22, 22, 22, 28, 25, 25, 18, 15, 10, 18, 10, 9, 23, 20, 14, 20, 20, 20, 29, 27, 27, 6, 5, 4, 17, 13, 8, 24, 23, 21
 |20, 16, 6, 14, 13, 6, 18, 15, 8, 11, 11, 10, 26, 23, 20, 26, 26, 26, 14, 11, 7, 24, 18, 15, 20, 20, 4, 23, 20, 19, 17, 16, 16, 17, 13, 2, 22, 20, 20, 23, 17, 12, 16, 12, 9, 24, 18, 15, 13, 10, 3, 24, 22, 19, 17, 10, 5, 18, 14, 7, 5, 3, 3, 20, 20, 18, 21, 15, 8, 19, 18, 18, 14, 13, 9, 19, 17, 16, 12, 7, 4, 20, 18, 18, 20, 16, 4, 12, 10, 9, 27, 26, 24, 20, 17, 17, 19, 17, 14, 13, 9, 2, 10, 8, 7, 25, 23, 16, 21, 19, 17, 17, 11, 5, 18, 18, 18, 26, 19, 15, 27, 21, 16, 30, 25, 19, 12, 5, 3, 7, 7, 5, 12, 9, 4, 21, 19, 12, 18, 9, 4, 18, 16, 14, 29, 23, 16, 8, 5, 3, 28, 27, 25, 29, 28, 28, 25, 20, 16, 19, 12, 7, 20, 17, 17, 19, 17, 10, 15, 14, 11, 25, 22, 17, 22, 18, 10, 17, 15, 12, 26, 19, 12, 23, 23, 20, 14, 7, 3, 6, 6, 6, 24, 23, 22, 9, 8, 5, 7, 4, 3, 25, 18, 12, 29, 22, 22, 26, 10, 2, 29, 22, 15, 26, 12, 4, 23, 18, 14, 14, 12, 11, 12, 11, 10, 18, 11, 9, 26, 16, 10, 14, 13, 10, 23, 16, 11, 23, 16, 16, 15, 11, 10, 15, 13, 12, 11, 9, 8, 22, 12, 12, 19, 16, 13, 10, 9, 9, 14, 13, 11, 19, 15, 14, 16, 11, 9, 21, 14, 5, 24, 20, 17, 21, 17, 9, 16, 16, 16, 23, 19, 16, 19, 17, 12, 15, 14, 6, 28, 24, 24, 6, 5, 4, 19, 18, 16, 15, 9, 3
 |20, 18, 17, 28, 13, 12, 26, 14, 8, 16, 10, 8, 22, 13, 10, 28, 27, 27, 27, 25, 25, 26, 17, 16, 9, 9, 9, 14, 14, 14, 22, 20, 6, 13, 13, 12, 22, 17, 5, 4, 4, 4, 10, 8, 4, 5, 4, 3, 10, 7, 6, 13, 13, 12, 23, 17, 7, 8, 8, 5, 6, 4, 3, 13, 12, 5, 20, 17, 15, 11, 10, 10, 17, 14, 14, 7, 6, 5, 20, 17, 11, 22, 21, 21, 25, 22, 21, 12, 8, 2, 23, 22, 22, 20, 18, 18, 16, 10, 3, 26, 23, 19, 20, 17, 14, 16, 13, 7, 29, 28, 27, 19, 11, 9, 21, 10, 8, 22, 12, 10, 15, 9, 6, 27, 22, 22, 20, 17, 14, 12, 10, 7, 21, 21, 13, 22, 17, 11, 17, 11, 5, 12, 10, 7, 26, 24, 23, 16, 12, 7, 15, 14, 12, 13, 12, 12, 13, 8, 1, 21, 21, 16, 27, 18, 11, 24, 17, 5, 17, 13, 12, 21, 15, 12, 19, 14, 12, 22, 15, 9, 15, 10, 6, 21, 9, 2, 26, 12, 10, 12, 8, 6, 26, 26, 20, 10, 8, 8, 21, 16, 9, 28, 26, 25, 22, 16, 5, 18, 15, 5, 21, 18, 11, 14, 14, 14, 25, 25, 25, 16, 15, 14, 10, 10, 6, 27, 19, 8, 13, 9, 8, 25, 20, 19, 26, 17, 9, 13, 12, 11, 28, 28, 28, 22, 17, 13, 22, 17, 16, 22, 21, 14, 19, 12, 8, 8, 6, 5, 10, 6, 5, 5, 5, 4, 7, 7, 7, 18, 14, 10, 26, 23, 22, 26, 23, 17, 28, 16, 12, 16, 16, 13, 17, 17, 16, 21, 20, 20, 19, 12, 3, 11, 9, 6, 1, 1, 1, 15, 14, 11|];